bacp/param_dec/inst-802-1-2049716937.eprime-param
language ESSENCE' 1.0

letting n_courses be 149
letting n_periods be 21
letting prerequisite_RelationAsSet_Explicit_1 be
        [1, 1, 1, 2, 2, 2, 2, 2, 2, 2, 2, 2, 3, 3, 3, 3, 3, 3, 3, 4, 4, 4, 4, 4, 4, 5, 5, 5, 5, 5, 5, 6, 7, 7, 7, 7, 7,
         7, 7, 8, 8, 8, 8, 8, 8, 9, 9, 9, 10, 10, 10, 10, 10, 10, 11, 11, 11, 11, 11, 11, 11, 11, 11, 11, 11, 13, 13,
         13, 13, 13, 14, 14, 14, 14, 15, 15, 15, 15, 15, 15, 15, 16, 16, 16, 16, 17, 17, 17, 17, 17, 17, 18, 18, 18, 18,
         18, 19, 19, 19, 19, 19, 19, 19, 20, 23, 23, 25, 25, 25, 28, 28, 30, 32, 32, 32, 34, 34, 35, 35, 38, 38, 39, 39,
         39, 40, 40, 41, 41, 42, 42, 44, 47, 48, 49, 50, 51, 52, 53, 55, 56, 58, 59, 59, 59, 60, 60, 61, 62, 63, 63, 65,
         68, 68, 70, 71, 71, 72, 76, 77, 78, 78, 79, 79, 80, 81, 82, 84, 84, 85, 86, 87, 88, 89, 89, 90, 90, 91, 92, 92,
         94, 95, 95;
             int(1..182)]
letting prerequisite_RelationAsSet_Explicit_2 be
        [36, 37, 70, 31, 44, 55, 56, 63, 67, 74, 93, 95, 27, 45, 47, 64, 67, 87, 92, 23, 28, 31, 66, 72, 77, 28, 35, 54,
         60, 69, 94, 76, 30, 34, 43, 58, 80, 83, 89, 22, 24, 29, 47, 50, 53, 58, 75, 81, 26, 51, 55, 68, 77, 85, 28, 42,
         46, 52, 56, 61, 73, 84, 90, 91, 93, 48, 49, 59, 62, 80, 25, 40, 84, 88, 25, 26, 30, 45, 64, 65, 82, 41, 48, 52,
         79, 20, 32, 39, 65, 71, 83, 35, 38, 57, 78, 86, 21, 30, 33, 38, 65, 84, 86, 113, 105, 144, 107, 123, 134, 112,
         142, 118, 103, 111, 134, 115, 130, 97, 140, 96, 97, 98, 128, 143, 107, 129, 101, 108, 146, 148, 142, 127, 102,
         114, 143, 125, 139, 130, 141, 113, 147, 107, 120, 133, 97, 105, 110, 109, 117, 148, 137, 126, 137, 136, 110,
         116, 145, 139, 122, 138, 139, 104, 148, 135, 106, 124, 121, 132, 141, 131, 97, 125, 99, 149, 109, 119, 147,
         100, 138, 146, 101, 112;
             int(1..182)]
letting course_load_Function1D be
        [6, 6, 5, 5, 7, 6, 5, 6, 5, 6, 5, 6, 5, 6, 6, 6, 7, 6, 7, 7, 6, 7, 5, 7, 6, 5, 5, 7, 6, 5, 6, 6, 6, 5, 6, 7, 5,
         6, 5, 5, 7, 6, 6, 5, 6, 5, 5, 5, 5, 6, 5, 5, 6, 7, 7, 5, 7, 6, 5, 6, 5, 6, 7, 6, 6, 7, 6, 5, 5, 7, 5, 6, 5, 6,
         6, 7, 6, 6, 5, 5, 6, 6, 6, 6, 5, 5, 5, 5, 5, 6, 7, 6, 5, 5, 5, 6, 6, 6, 5, 5, 5, 6, 5, 5, 6, 5, 5, 6, 6, 5, 6,
         6, 5, 6, 5, 5, 6, 7, 6, 5, 6, 7, 5, 5, 5, 5, 6, 6, 5, 6, 6, 7, 7, 6, 6, 5, 5, 5, 7, 7, 5, 6, 6, 6, 6, 5, 5, 6,
         6;  int(1..149)]
letting load_per_period_ub be 42
letting load_per_period_lb be 5
letting courses_per_period_ub be 9
letting courses_per_period_lb be 3
letting fin1 be 182
letting fin2 be 149
letting fin3 be 7
